data/lp_files/pEFS/84_6.lp
\ Model foo
\ LP format - for model browsing. Use MPS format to capture full model detail.
Minimize
  z
Subject To
 allocateEach[1]: x[1,1] + x[2,1] + x[3,1] + x[4,1] + x[5,1] = 1
 allocateEach[2]: x[1,2] + x[2,2] + x[3,2] + x[4,2] + x[5,2] = 1
 allocateEach[3]: x[1,3] + x[2,3] + x[3,3] + x[4,3] + x[5,3] = 1
 allocateEach[4]: x[1,4] + x[2,4] + x[3,4] + x[4,4] + x[5,4] = 1
 allocateAllCash: cashProportion[1] + cashProportion[2] + cashProportion[3]
   + cashProportion[4] + cashProportion[5] = 1
 findWorstP[1,2]: z + 0.1904852612029144 cashProportion[1]
   - 0.1904852612029144 cashProportion[2] + 0.0030001428639459 x[1,1]
   + 0.3196342682984904 x[1,2] + 0.2538216105528834 x[1,3]
   + 0.2330587170817658 x[1,4] - 0.0030001428639459 x[2,1]
   - 0.3196342682984904 x[2,2] - 0.2538216105528834 x[2,3]
   - 0.2330587170817658 x[2,4] >= 0
 findWorstP[1,3]: z + 0.1904852612029144 cashProportion[1]
   - 0.1904852612029144 cashProportion[3] + 0.0030001428639459 x[1,1]
   + 0.3196342682984904 x[1,2] + 0.2538216105528834 x[1,3]
   + 0.2330587170817658 x[1,4] - 0.0030001428639459 x[3,1]
   - 0.3196342682984904 x[3,2] - 0.2538216105528834 x[3,3]
   - 0.2330587170817658 x[3,4] >= 0
 findWorstP[1,4]: z + 0.1904852612029144 cashProportion[1]
   - 0.1904852612029144 cashProportion[4] + 0.0030001428639459 x[1,1]
   + 0.3196342682984904 x[1,2] + 0.2538216105528834 x[1,3]
   + 0.2330587170817658 x[1,4] - 0.0030001428639459 x[4,1]
   - 0.3196342682984904 x[4,2] - 0.2538216105528834 x[4,3]
   - 0.2330587170817658 x[4,4] >= 0
 findWorstP[1,5]: z + 0.1904852612029144 cashProportion[1]
   - 0.1904852612029144 cashProportion[5] + 0.0030001428639459 x[1,1]
   + 0.3196342682984904 x[1,2] + 0.2538216105528834 x[1,3]
   + 0.2330587170817658 x[1,4] - 0.0030001428639459 x[5,1]
   - 0.3196342682984904 x[5,2] - 0.2538216105528834 x[5,3]
   - 0.2330587170817658 x[5,4] >= 0
 findWorstP[2,1]: z - 0.2198406155537236 cashProportion[1]
   + 0.2198406155537236 cashProportion[2] - 0.4361637812585875 x[1,1]
   - 0.0525419071173399 x[1,2] - 0.1311349271777961 x[1,3]
   - 0.1603187688925529 x[1,4] + 0.4361637812585875 x[2,1]
   + 0.0525419071173399 x[2,2] + 0.1311349271777961 x[2,3]
   + 0.1603187688925529 x[2,4] >= 0
 findWorstP[2,3]: z + 0.2198406155537236 cashProportion[2]
   - 0.2198406155537236 cashProportion[3] + 0.4361637812585875 x[2,1]
   + 0.0525419071173399 x[2,2] + 0.1311349271777961 x[2,3]
   + 0.1603187688925529 x[2,4] - 0.4361637812585875 x[3,1]
   - 0.0525419071173399 x[3,2] - 0.1311349271777961 x[3,3]
   - 0.1603187688925529 x[3,4] >= 0
 findWorstP[2,4]: z + 0.2198406155537236 cashProportion[2]
   - 0.2198406155537236 cashProportion[4] + 0.4361637812585875 x[2,1]
   + 0.0525419071173399 x[2,2] + 0.1311349271777961 x[2,3]
   + 0.1603187688925529 x[2,4] - 0.4361637812585875 x[4,1]
   - 0.0525419071173399 x[4,2] - 0.1311349271777961 x[4,3]
   - 0.1603187688925529 x[4,4] >= 0
 findWorstP[2,5]: z + 0.2198406155537236 cashProportion[2]
   - 0.2198406155537236 cashProportion[5] + 0.4361637812585875 x[2,1]
   + 0.0525419071173399 x[2,2] + 0.1311349271777961 x[2,3]
   + 0.1603187688925529 x[2,4] - 0.4361637812585875 x[5,1]
   - 0.0525419071173399 x[5,2] - 0.1311349271777961 x[5,3]
   - 0.1603187688925529 x[5,4] >= 0
 findWorstP[3,1]: z - 0.1272790912272886 cashProportion[1]
   + 0.1272790912272886 cashProportion[3] - 0.1503484265122347 x[1,1]
   - 0.1861138511471028 x[1,2] - 0.3048652432621631 x[1,3]
   - 0.2313933878512107 x[1,4] + 0.1503484265122347 x[3,1]
   + 0.1861138511471028 x[3,2] + 0.3048652432621631 x[3,3]
   + 0.2313933878512107 x[3,4] >= 0
 findWorstP[3,2]: z - 0.1272790912272886 cashProportion[2]
   + 0.1272790912272886 cashProportion[3] - 0.1503484265122347 x[2,1]
   - 0.1861138511471028 x[2,2] - 0.3048652432621631 x[2,3]
   - 0.2313933878512107 x[2,4] + 0.1503484265122347 x[3,1]
   + 0.1861138511471028 x[3,2] + 0.3048652432621631 x[3,3]
   + 0.2313933878512107 x[3,4] >= 0
 findWorstP[3,4]: z + 0.1272790912272886 cashProportion[3]
   - 0.1272790912272886 cashProportion[4] + 0.1503484265122347 x[3,1]
   + 0.1861138511471028 x[3,2] + 0.3048652432621631 x[3,3]
   + 0.2313933878512107 x[3,4] - 0.1503484265122347 x[4,1]
   - 0.1861138511471028 x[4,2] - 0.3048652432621631 x[4,3]
   - 0.2313933878512107 x[4,4] >= 0
 findWorstP[3,5]: z + 0.1272790912272886 cashProportion[3]
   - 0.1272790912272886 cashProportion[5] + 0.1503484265122347 x[3,1]
   + 0.1861138511471028 x[3,2] + 0.3048652432621631 x[3,3]
   + 0.2313933878512107 x[3,4] - 0.1503484265122347 x[5,1]
   - 0.1861138511471028 x[5,2] - 0.3048652432621631 x[5,3]
   - 0.2313933878512107 x[5,4] >= 0
 findWorstP[4,1]: z - 0.1645955065426714 cashProportion[1]
   + 0.1645955065426714 cashProportion[4] - 0.3169286478479138 x[1,1]
   - 0.185951773516583 x[1,2] - 0.1538145008641264 x[1,3]
   - 0.1787095712287055 x[1,4] + 0.3169286478479138 x[4,1]
   + 0.185951773516583 x[4,2] + 0.1538145008641264 x[4,3]
   + 0.1787095712287055 x[4,4] >= 0
 findWorstP[4,2]: z - 0.1645955065426714 cashProportion[2]
   + 0.1645955065426714 cashProportion[4] - 0.3169286478479138 x[2,1]
   - 0.185951773516583 x[2,2] - 0.1538145008641264 x[2,3]
   - 0.1787095712287055 x[2,4] + 0.3169286478479138 x[4,1]
   + 0.185951773516583 x[4,2] + 0.1538145008641264 x[4,3]
   + 0.1787095712287055 x[4,4] >= 0
 findWorstP[4,3]: z - 0.1645955065426714 cashProportion[3]
   + 0.1645955065426714 cashProportion[4] - 0.3169286478479138 x[3,1]
   - 0.185951773516583 x[3,2] - 0.1538145008641264 x[3,3]
   - 0.1787095712287055 x[3,4] + 0.3169286478479138 x[4,1]
   + 0.185951773516583 x[4,2] + 0.1538145008641264 x[4,3]
   + 0.1787095712287055 x[4,4] >= 0
 findWorstP[4,5]: z + 0.1645955065426714 cashProportion[4]
   - 0.1645955065426714 cashProportion[5] + 0.3169286478479138 x[4,1]
   + 0.185951773516583 x[4,2] + 0.1538145008641264 x[4,3]
   + 0.1787095712287055 x[4,4] - 0.3169286478479138 x[5,1]
   - 0.185951773516583 x[5,2] - 0.1538145008641264 x[5,3]
   - 0.1787095712287055 x[5,4] >= 0
 findWorstP[5,1]: z - 0.1681802892700975 cashProportion[1]
   + 0.1681802892700975 cashProportion[5] - 0.1199545913218971 x[1,1]
   - 0.3929112008072654 x[1,2] - 0.1208795829128826 x[1,3]
   - 0.1980743356878574 x[1,4] + 0.1199545913218971 x[5,1]
   + 0.3929112008072654 x[5,2] + 0.1208795829128826 x[5,3]
   + 0.1980743356878574 x[5,4] >= 0
 findWorstP[5,2]: z - 0.1681802892700975 cashProportion[2]
   + 0.1681802892700975 cashProportion[5] - 0.1199545913218971 x[2,1]
   - 0.3929112008072654 x[2,2] - 0.1208795829128826 x[2,3]
   - 0.1980743356878574 x[2,4] + 0.1199545913218971 x[5,1]
   + 0.3929112008072654 x[5,2] + 0.1208795829128826 x[5,3]
   + 0.1980743356878574 x[5,4] >= 0
 findWorstP[5,3]: z - 0.1681802892700975 cashProportion[3]
   + 0.1681802892700975 cashProportion[5] - 0.1199545913218971 x[3,1]
   - 0.3929112008072654 x[3,2] - 0.1208795829128826 x[3,3]
   - 0.1980743356878574 x[3,4] + 0.1199545913218971 x[5,1]
   + 0.3929112008072654 x[5,2] + 0.1208795829128826 x[5,3]
   + 0.1980743356878574 x[5,4] >= 0
 findWorstP[5,4]: z - 0.1681802892700975 cashProportion[4]
   + 0.1681802892700975 cashProportion[5] - 0.1199545913218971 x[4,1]
   - 0.3929112008072654 x[4,2] - 0.1208795829128826 x[4,3]
   - 0.1980743356878574 x[4,4] + 0.1199545913218971 x[5,1]
   + 0.3929112008072654 x[5,2] + 0.1208795829128826 x[5,3]
   + 0.1980743356878574 x[5,4] >= 0
Bounds
 z <= 1
 -infinity <= cashProportion[1] <= 1
 -infinity <= cashProportion[2] <= 1
 -infinity <= cashProportion[3] <= 1
 -infinity <= cashProportion[4] <= 1
 -infinity <= cashProportion[5] <= 1
Binaries
 x[1,1] x[1,2] x[1,3] x[1,4] x[2,1] x[2,2] x[2,3] x[2,4] x[3,1] x[3,2]
 x[3,3] x[3,4] x[4,1] x[4,2] x[4,3] x[4,4] x[5,1] x[5,2] x[5,3] x[5,4]
End
