data/mps_files/pEFS/84_6.mps
NAME foo
ROWS
 N  OBJ
 E  allocateEach[1]
 E  allocateEach[2]
 E  allocateEach[3]
 E  allocateEach[4]
 E  allocateAllCash
 G  findWorstP[1,2]
 G  findWorstP[1,3]
 G  findWorstP[1,4]
 G  findWorstP[1,5]
 G  findWorstP[2,1]
 G  findWorstP[2,3]
 G  findWorstP[2,4]
 G  findWorstP[2,5]
 G  findWorstP[3,1]
 G  findWorstP[3,2]
 G  findWorstP[3,4]
 G  findWorstP[3,5]
 G  findWorstP[4,1]
 G  findWorstP[4,2]
 G  findWorstP[4,3]
 G  findWorstP[4,5]
 G  findWorstP[5,1]
 G  findWorstP[5,2]
 G  findWorstP[5,3]
 G  findWorstP[5,4]
COLUMNS
    z         OBJ       1
    z         findWorstP[1,2]  1
    z         findWorstP[1,3]  1
    z         findWorstP[1,4]  1
    z         findWorstP[1,5]  1
    z         findWorstP[2,1]  1
    z         findWorstP[2,3]  1
    z         findWorstP[2,4]  1
    z         findWorstP[2,5]  1
    z         findWorstP[3,1]  1
    z         findWorstP[3,2]  1
    z         findWorstP[3,4]  1
    z         findWorstP[3,5]  1
    z         findWorstP[4,1]  1
    z         findWorstP[4,2]  1
    z         findWorstP[4,3]  1
    z         findWorstP[4,5]  1
    z         findWorstP[5,1]  1
    z         findWorstP[5,2]  1
    z         findWorstP[5,3]  1
    z         findWorstP[5,4]  1
    cashProportion[1]  allocateAllCash  1
    cashProportion[1]  findWorstP[1,2]  1.9048526120291442e-01
    cashProportion[1]  findWorstP[1,3]  1.9048526120291442e-01
    cashProportion[1]  findWorstP[1,4]  1.9048526120291442e-01
    cashProportion[1]  findWorstP[1,5]  1.9048526120291442e-01
    cashProportion[1]  findWorstP[2,1]  -2.1984061555372356e-01
    cashProportion[1]  findWorstP[3,1]  -1.2727909122728864e-01
    cashProportion[1]  findWorstP[4,1]  -1.6459550654267141e-01
    cashProportion[1]  findWorstP[5,1]  -1.6818028927009754e-01
    cashProportion[2]  allocateAllCash  1
    cashProportion[2]  findWorstP[1,2]  -1.9048526120291442e-01
    cashProportion[2]  findWorstP[2,1]  2.1984061555372356e-01
    cashProportion[2]  findWorstP[2,3]  2.1984061555372356e-01
    cashProportion[2]  findWorstP[2,4]  2.1984061555372356e-01
    cashProportion[2]  findWorstP[2,5]  2.1984061555372356e-01
    cashProportion[2]  findWorstP[3,2]  -1.2727909122728864e-01
    cashProportion[2]  findWorstP[4,2]  -1.6459550654267141e-01
    cashProportion[2]  findWorstP[5,2]  -1.6818028927009754e-01
    cashProportion[3]  allocateAllCash  1
    cashProportion[3]  findWorstP[1,3]  -1.9048526120291442e-01
    cashProportion[3]  findWorstP[2,3]  -2.1984061555372356e-01
    cashProportion[3]  findWorstP[3,1]  1.2727909122728864e-01
    cashProportion[3]  findWorstP[3,2]  1.2727909122728864e-01
    cashProportion[3]  findWorstP[3,4]  1.2727909122728864e-01
    cashProportion[3]  findWorstP[3,5]  1.2727909122728864e-01
    cashProportion[3]  findWorstP[4,3]  -1.6459550654267141e-01
    cashProportion[3]  findWorstP[5,3]  -1.6818028927009754e-01
    cashProportion[4]  allocateAllCash  1
    cashProportion[4]  findWorstP[1,4]  -1.9048526120291442e-01
    cashProportion[4]  findWorstP[2,4]  -2.1984061555372356e-01
    cashProportion[4]  findWorstP[3,4]  -1.2727909122728864e-01
    cashProportion[4]  findWorstP[4,1]  1.6459550654267141e-01
    cashProportion[4]  findWorstP[4,2]  1.6459550654267141e-01
    cashProportion[4]  findWorstP[4,3]  1.6459550654267141e-01
    cashProportion[4]  findWorstP[4,5]  1.6459550654267141e-01
    cashProportion[4]  findWorstP[5,4]  -1.6818028927009754e-01
    cashProportion[5]  allocateAllCash  1
    cashProportion[5]  findWorstP[1,5]  -1.9048526120291442e-01
    cashProportion[5]  findWorstP[2,5]  -2.1984061555372356e-01
    cashProportion[5]  findWorstP[3,5]  -1.2727909122728864e-01
    cashProportion[5]  findWorstP[4,5]  -1.6459550654267141e-01
    cashProportion[5]  findWorstP[5,1]  1.6818028927009754e-01
    cashProportion[5]  findWorstP[5,2]  1.6818028927009754e-01
    cashProportion[5]  findWorstP[5,3]  1.6818028927009754e-01
    cashProportion[5]  findWorstP[5,4]  1.6818028927009754e-01
    MARKER    'MARKER'                 'INTORG'
    x[1,1]    allocateEach[1]  1
    x[1,1]    findWorstP[1,2]  3.0001428639459017e-03
    x[1,1]    findWorstP[1,3]  3.0001428639459017e-03
    x[1,1]    findWorstP[1,4]  3.0001428639459017e-03
    x[1,1]    findWorstP[1,5]  3.0001428639459017e-03
    x[1,1]    findWorstP[2,1]  -4.3616378125858751e-01
    x[1,1]    findWorstP[3,1]  -1.5034842651223471e-01
    x[1,1]    findWorstP[4,1]  -3.1692864784791380e-01
    x[1,1]    findWorstP[5,1]  -1.1995459132189706e-01
    x[1,2]    allocateEach[2]  1
    x[1,2]    findWorstP[1,2]  3.1963426829849040e-01
    x[1,2]    findWorstP[1,3]  3.1963426829849040e-01
    x[1,2]    findWorstP[1,4]  3.1963426829849040e-01
    x[1,2]    findWorstP[1,5]  3.1963426829849040e-01
    x[1,2]    findWorstP[2,1]  -5.2541907117339928e-02
    x[1,2]    findWorstP[3,1]  -1.8611385114710280e-01
    x[1,2]    findWorstP[4,1]  -1.8595177351658304e-01
    x[1,2]    findWorstP[5,1]  -3.9291120080726538e-01
    x[1,3]    allocateEach[3]  1
    x[1,3]    findWorstP[1,2]  2.5382161055288344e-01
    x[1,3]    findWorstP[1,3]  2.5382161055288344e-01
    x[1,3]    findWorstP[1,4]  2.5382161055288344e-01
    x[1,3]    findWorstP[1,5]  2.5382161055288344e-01
    x[1,3]    findWorstP[2,1]  -1.3113492717779610e-01
    x[1,3]    findWorstP[3,1]  -3.0486524326216313e-01
    x[1,3]    findWorstP[4,1]  -1.5381450086412643e-01
    x[1,3]    findWorstP[5,1]  -1.2087958291288260e-01
    x[1,4]    allocateEach[4]  1
    x[1,4]    findWorstP[1,2]  2.3305871708176576e-01
    x[1,4]    findWorstP[1,3]  2.3305871708176576e-01
    x[1,4]    findWorstP[1,4]  2.3305871708176576e-01
    x[1,4]    findWorstP[1,5]  2.3305871708176576e-01
    x[1,4]    findWorstP[2,1]  -1.6031876889255289e-01
    x[1,4]    findWorstP[3,1]  -2.3139338785121075e-01
    x[1,4]    findWorstP[4,1]  -1.7870957122870548e-01
    x[1,4]    findWorstP[5,1]  -1.9807433568785737e-01
    x[2,1]    allocateEach[1]  1
    x[2,1]    findWorstP[1,2]  -3.0001428639459017e-03
    x[2,1]    findWorstP[2,1]  4.3616378125858751e-01
    x[2,1]    findWorstP[2,3]  4.3616378125858751e-01
    x[2,1]    findWorstP[2,4]  4.3616378125858751e-01
    x[2,1]    findWorstP[2,5]  4.3616378125858751e-01
    x[2,1]    findWorstP[3,2]  -1.5034842651223471e-01
    x[2,1]    findWorstP[4,2]  -3.1692864784791380e-01
    x[2,1]    findWorstP[5,2]  -1.1995459132189706e-01
    x[2,2]    allocateEach[2]  1
    x[2,2]    findWorstP[1,2]  -3.1963426829849040e-01
    x[2,2]    findWorstP[2,1]  5.2541907117339928e-02
    x[2,2]    findWorstP[2,3]  5.2541907117339928e-02
    x[2,2]    findWorstP[2,4]  5.2541907117339928e-02
    x[2,2]    findWorstP[2,5]  5.2541907117339928e-02
    x[2,2]    findWorstP[3,2]  -1.8611385114710280e-01
    x[2,2]    findWorstP[4,2]  -1.8595177351658304e-01
    x[2,2]    findWorstP[5,2]  -3.9291120080726538e-01
    x[2,3]    allocateEach[3]  1
    x[2,3]    findWorstP[1,2]  -2.5382161055288344e-01
    x[2,3]    findWorstP[2,1]  1.3113492717779610e-01
    x[2,3]    findWorstP[2,3]  1.3113492717779610e-01
    x[2,3]    findWorstP[2,4]  1.3113492717779610e-01
    x[2,3]    findWorstP[2,5]  1.3113492717779610e-01
    x[2,3]    findWorstP[3,2]  -3.0486524326216313e-01
    x[2,3]    findWorstP[4,2]  -1.5381450086412643e-01
    x[2,3]    findWorstP[5,2]  -1.2087958291288260e-01
    x[2,4]    allocateEach[4]  1
    x[2,4]    findWorstP[1,2]  -2.3305871708176576e-01
    x[2,4]    findWorstP[2,1]  1.6031876889255289e-01
    x[2,4]    findWorstP[2,3]  1.6031876889255289e-01
    x[2,4]    findWorstP[2,4]  1.6031876889255289e-01
    x[2,4]    findWorstP[2,5]  1.6031876889255289e-01
    x[2,4]    findWorstP[3,2]  -2.3139338785121075e-01
    x[2,4]    findWorstP[4,2]  -1.7870957122870548e-01
    x[2,4]    findWorstP[5,2]  -1.9807433568785737e-01
    x[3,1]    allocateEach[1]  1
    x[3,1]    findWorstP[1,3]  -3.0001428639459017e-03
    x[3,1]    findWorstP[2,3]  -4.3616378125858751e-01
    x[3,1]    findWorstP[3,1]  1.5034842651223471e-01
    x[3,1]    findWorstP[3,2]  1.5034842651223471e-01
    x[3,1]    findWorstP[3,4]  1.5034842651223471e-01
    x[3,1]    findWorstP[3,5]  1.5034842651223471e-01
    x[3,1]    findWorstP[4,3]  -3.1692864784791380e-01
    x[3,1]    findWorstP[5,3]  -1.1995459132189706e-01
    x[3,2]    allocateEach[2]  1
    x[3,2]    findWorstP[1,3]  -3.1963426829849040e-01
    x[3,2]    findWorstP[2,3]  -5.2541907117339928e-02
    x[3,2]    findWorstP[3,1]  1.8611385114710280e-01
    x[3,2]    findWorstP[3,2]  1.8611385114710280e-01
    x[3,2]    findWorstP[3,4]  1.8611385114710280e-01
    x[3,2]    findWorstP[3,5]  1.8611385114710280e-01
    x[3,2]    findWorstP[4,3]  -1.8595177351658304e-01
    x[3,2]    findWorstP[5,3]  -3.9291120080726538e-01
    x[3,3]    allocateEach[3]  1
    x[3,3]    findWorstP[1,3]  -2.5382161055288344e-01
    x[3,3]    findWorstP[2,3]  -1.3113492717779610e-01
    x[3,3]    findWorstP[3,1]  3.0486524326216313e-01
    x[3,3]    findWorstP[3,2]  3.0486524326216313e-01
    x[3,3]    findWorstP[3,4]  3.0486524326216313e-01
    x[3,3]    findWorstP[3,5]  3.0486524326216313e-01
    x[3,3]    findWorstP[4,3]  -1.5381450086412643e-01
    x[3,3]    findWorstP[5,3]  -1.2087958291288260e-01
    x[3,4]    allocateEach[4]  1
    x[3,4]    findWorstP[1,3]  -2.3305871708176576e-01
    x[3,4]    findWorstP[2,3]  -1.6031876889255289e-01
    x[3,4]    findWorstP[3,1]  2.3139338785121075e-01
    x[3,4]    findWorstP[3,2]  2.3139338785121075e-01
    x[3,4]    findWorstP[3,4]  2.3139338785121075e-01
    x[3,4]    findWorstP[3,5]  2.3139338785121075e-01
    x[3,4]    findWorstP[4,3]  -1.7870957122870548e-01
    x[3,4]    findWorstP[5,3]  -1.9807433568785737e-01
    x[4,1]    allocateEach[1]  1
    x[4,1]    findWorstP[1,4]  -3.0001428639459017e-03
    x[4,1]    findWorstP[2,4]  -4.3616378125858751e-01
    x[4,1]    findWorstP[3,4]  -1.5034842651223471e-01
    x[4,1]    findWorstP[4,1]  3.1692864784791380e-01
    x[4,1]    findWorstP[4,2]  3.1692864784791380e-01
    x[4,1]    findWorstP[4,3]  3.1692864784791380e-01
    x[4,1]    findWorstP[4,5]  3.1692864784791380e-01
    x[4,1]    findWorstP[5,4]  -1.1995459132189706e-01
    x[4,2]    allocateEach[2]  1
    x[4,2]    findWorstP[1,4]  -3.1963426829849040e-01
    x[4,2]    findWorstP[2,4]  -5.2541907117339928e-02
    x[4,2]    findWorstP[3,4]  -1.8611385114710280e-01
    x[4,2]    findWorstP[4,1]  1.8595177351658304e-01
    x[4,2]    findWorstP[4,2]  1.8595177351658304e-01
    x[4,2]    findWorstP[4,3]  1.8595177351658304e-01
    x[4,2]    findWorstP[4,5]  1.8595177351658304e-01
    x[4,2]    findWorstP[5,4]  -3.9291120080726538e-01
    x[4,3]    allocateEach[3]  1
    x[4,3]    findWorstP[1,4]  -2.5382161055288344e-01
    x[4,3]    findWorstP[2,4]  -1.3113492717779610e-01
    x[4,3]    findWorstP[3,4]  -3.0486524326216313e-01
    x[4,3]    findWorstP[4,1]  1.5381450086412643e-01
    x[4,3]    findWorstP[4,2]  1.5381450086412643e-01
    x[4,3]    findWorstP[4,3]  1.5381450086412643e-01
    x[4,3]    findWorstP[4,5]  1.5381450086412643e-01
    x[4,3]    findWorstP[5,4]  -1.2087958291288260e-01
    x[4,4]    allocateEach[4]  1
    x[4,4]    findWorstP[1,4]  -2.3305871708176576e-01
    x[4,4]    findWorstP[2,4]  -1.6031876889255289e-01
    x[4,4]    findWorstP[3,4]  -2.3139338785121075e-01
    x[4,4]    findWorstP[4,1]  1.7870957122870548e-01
    x[4,4]    findWorstP[4,2]  1.7870957122870548e-01
    x[4,4]    findWorstP[4,3]  1.7870957122870548e-01
    x[4,4]    findWorstP[4,5]  1.7870957122870548e-01
    x[4,4]    findWorstP[5,4]  -1.9807433568785737e-01
    x[5,1]    allocateEach[1]  1
    x[5,1]    findWorstP[1,5]  -3.0001428639459017e-03
    x[5,1]    findWorstP[2,5]  -4.3616378125858751e-01
    x[5,1]    findWorstP[3,5]  -1.5034842651223471e-01
    x[5,1]    findWorstP[4,5]  -3.1692864784791380e-01
    x[5,1]    findWorstP[5,1]  1.1995459132189706e-01
    x[5,1]    findWorstP[5,2]  1.1995459132189706e-01
    x[5,1]    findWorstP[5,3]  1.1995459132189706e-01
    x[5,1]    findWorstP[5,4]  1.1995459132189706e-01
    x[5,2]    allocateEach[2]  1
    x[5,2]    findWorstP[1,5]  -3.1963426829849040e-01
    x[5,2]    findWorstP[2,5]  -5.2541907117339928e-02
    x[5,2]    findWorstP[3,5]  -1.8611385114710280e-01
    x[5,2]    findWorstP[4,5]  -1.8595177351658304e-01
    x[5,2]    findWorstP[5,1]  3.9291120080726538e-01
    x[5,2]    findWorstP[5,2]  3.9291120080726538e-01
    x[5,2]    findWorstP[5,3]  3.9291120080726538e-01
    x[5,2]    findWorstP[5,4]  3.9291120080726538e-01
    x[5,3]    allocateEach[3]  1
    x[5,3]    findWorstP[1,5]  -2.5382161055288344e-01
    x[5,3]    findWorstP[2,5]  -1.3113492717779610e-01
    x[5,3]    findWorstP[3,5]  -3.0486524326216313e-01
    x[5,3]    findWorstP[4,5]  -1.5381450086412643e-01
    x[5,3]    findWorstP[5,1]  1.2087958291288260e-01
    x[5,3]    findWorstP[5,2]  1.2087958291288260e-01
    x[5,3]    findWorstP[5,3]  1.2087958291288260e-01
    x[5,3]    findWorstP[5,4]  1.2087958291288260e-01
    x[5,4]    allocateEach[4]  1
    x[5,4]    findWorstP[1,5]  -2.3305871708176576e-01
    x[5,4]    findWorstP[2,5]  -1.6031876889255289e-01
    x[5,4]    findWorstP[3,5]  -2.3139338785121075e-01
    x[5,4]    findWorstP[4,5]  -1.7870957122870548e-01
    x[5,4]    findWorstP[5,1]  1.9807433568785737e-01
    x[5,4]    findWorstP[5,2]  1.9807433568785737e-01
    x[5,4]    findWorstP[5,3]  1.9807433568785737e-01
    x[5,4]    findWorstP[5,4]  1.9807433568785737e-01
    MARKER    'MARKER'                 'INTEND'
RHS
    RHS1      allocateEach[1]  1
    RHS1      allocateEach[2]  1
    RHS1      allocateEach[3]  1
    RHS1      allocateEach[4]  1
    RHS1      allocateAllCash  1
BOUNDS
 UP BND1      z         1
 MI BND1      cashProportion[1]
 UP BND1      cashProportion[1]  1
 MI BND1      cashProportion[2]
 UP BND1      cashProportion[2]  1
 MI BND1      cashProportion[3]
 UP BND1      cashProportion[3]  1
 MI BND1      cashProportion[4]
 UP BND1      cashProportion[4]  1
 MI BND1      cashProportion[5]
 UP BND1      cashProportion[5]  1
 BV BND1      x[1,1]  
 BV BND1      x[1,2]  
 BV BND1      x[1,3]  
 BV BND1      x[1,4]  
 BV BND1      x[2,1]  
 BV BND1      x[2,2]  
 BV BND1      x[2,3]  
 BV BND1      x[2,4]  
 BV BND1      x[3,1]  
 BV BND1      x[3,2]  
 BV BND1      x[3,3]  
 BV BND1      x[3,4]  
 BV BND1      x[4,1]  
 BV BND1      x[4,2]  
 BV BND1      x[4,3]  
 BV BND1      x[4,4]  
 BV BND1      x[5,1]  
 BV BND1      x[5,2]  
 BV BND1      x[5,3]  
 BV BND1      x[5,4]  
ENDATA
